# Solution for model GasLib-40
# Objective value = 5.2747819949830749e+01
loadshed[innode_1] 0
loadshed[innode_2] 0
loadshed[innode_3] 0
loadshed[innode_4] 0
loadshed[innode_5] 0
loadshed[innode_6] 0
loadshed[innode_7] 0
loadshed[innode_8] 0
loadshed[source_1] -1.1807067592380105e-01
loadshed[source_2] 4.3519888160967080e-02
loadshed[source_3] 4.0820710547750649e-01
loadshed[sink_1] 3.6252154469942321e-01
loadshed[sink_2] 0
loadshed[sink_3] 0
loadshed[sink_4] 0
loadshed[sink_5] 0
loadshed[sink_6] 0
loadshed[sink_7] 0
loadshed[sink_8] 0
loadshed[sink_9] 0
loadshed[sink_10] 0
loadshed[sink_11] 0
loadshed[sink_12] 1
loadshed[sink_13] 0
loadshed[sink_14] 0
loadshed[sink_15] 0
loadshed[sink_16] 0
loadshed[sink_17] 0
loadshed[sink_18] 0
loadshed[sink_19] 0
loadshed[sink_20] 0
loadshed[sink_21] 1
loadshed[sink_22] 0
loadshed[sink_23] 0
loadshed[sink_24] 8.6282285987621476e-01
loadshed[sink_25] 0
loadshed[sink_26] 0
loadshed[sink_27] 0
loadshed[sink_28] 0
loadshed[sink_29] 0
flow[source_1,sink_3] 1.7675610373198145e+02
flow[innode_1,sink_16] 1.6354166666666970e+01
flow[innode_6,sink_13] 2.0922463584690853e+01
flow[sink_13,sink_14] 4.5682969180241848e+00
flow[sink_14,sink_10] -1.1785869748642483e+01
flow[sink_25,sink_26] 1.1250825888317979e+02
flow[sink_26,sink_9] 0
flow[sink_9,sink_18] -1.6354166666669244e+01
flow[sink_26,sink_4] 9.6154092216513163e+01
flow[sink_4,sink_20] -1.4502416685204480e+01
flow[sink_18,sink_6] -3.2708333333335915e+01
flow[sink_25,innode_8] -1.4404777039864507e+02
flow[sink_6,sink_7] -7.5842095571064078e+01
flow[sink_6,sink_22] 2.6779595571061520e+01
flow[sink_7,sink_24] 2.2434178124410695e+00
flow[sink_22,sink_1] 1.0425428904394851e+01
flow[sink_24,sink_21] 0
flow[sink_21,sink_12] 0
flow[sink_7,sink_5] -9.4439680050171816e+01
flow[sink_5,sink_17] -1.1079384671683849e+02
flow[sink_17,sink_4] -9.4302342235050958e+01
flow[sink_17,sink_8] -32.8456711484542
flow[sink_3,sink_23] 16.3541666666697
flow[sink_8,sink_20] -4.9199837815120873e+01
flow[sink_25,sink_20] 8.0056421166992124e+01
flow[sink_25,sink_15] -8.5793539902884788e+01
flow[sink_15,sink_29] -5.7611234205311916e+01
flow[sink_29,sink_28] 1.6354166666667879e+01
flow[sink_29,sink_2] 6.0890639030906186e+01
flow[sink_2,sink_15] 4.4536472364239557e+01
flow[sink_29,innode_7] -1.5121020656955267e+02
flow[innode_4,sink_19] 0
flow[sink_19,innode_3] 0
flow[innode_4,innode_5] 9.3556703081976138e+01
flow[sink_27,innode_5] -9.3556703081976138e+01
flow[sink_27,sink_19] 7.7202536415309552e+01
flow[sink_10,sink_11] 3.2708333333333641e+01
flow[sink_10,innode_2] -6.0848369748642881e+01
flow[sink_10,innode_3] 0
flow[innode_6,sink_25] -2.0922463584690853e+01
flow[sink_11,innode_1] 1.6354166666666970e+01
flow[sink_19,innode_2] 6.0848369748642881e+01
flow[source_3,innode_4] 9.3556703081976138e+01
flow[source_2,innode_7] 1.5121020656955267e+02
flow[sink_3,innode_8] 1.4404777039864507e+02
pressure[innode_1] 7.5147193080128545e+01
pressure[innode_2] 78.5149820409457
pressure[innode_3] 7.5298894387732091e+01
pressure[innode_4] 81.01325
pressure[innode_5] 8.0948896766359979e+01
pressure[innode_6] 7.4864956699444747e+01
pressure[innode_7] 81.01325
pressure[innode_8] 8.0422421868503065e+01
pressure[source_1] 81.01325
pressure[source_2] 81.01325
pressure[source_3] 81.01325
pressure[sink_1] 1.0132500000000002e+00
pressure[sink_2] 7.5426540733661113e+01
pressure[sink_3] 8.0422421868503065e+01
pressure[sink_4] 5.4715785956431169e+01
pressure[sink_5] 4.2858520649090572e+01
pressure[sink_6] 2.5406650436167921e+00
pressure[sink_7] 3.5817962356129796e+00
pressure[sink_8] 5.2351213891955553e+01
pressure[sink_9] 1.0755126643105544e+00
pressure[sink_10] 7.5298894387732091e+01
pressure[sink_11] 7.5147193080128545e+01
pressure[sink_12] 1.01325
pressure[sink_13] 7.4749614654170827e+01
pressure[sink_14] 7.4741439297703167e+01
pressure[sink_15] 7.5281138967072280e+01
pressure[sink_16] 7.4125543245310865e+01
pressure[sink_17] 5.1111861388569046e+01
pressure[sink_18] 1.6672551581103088e+00
pressure[sink_19] 78.5149820409457
pressure[sink_20] 5.5779750677015066e+01
pressure[sink_21] 1.01325
pressure[sink_22] 1.6913799096648789e+00
pressure[sink_23] 8.0257703856843278e+01
pressure[sink_24] 1.01325
pressure[sink_25] 7.4864956699444747e+01
pressure[sink_26] 6.6941066098738759e+01
pressure[sink_27] 8.0172549004978748e+01
pressure[sink_28] 7.6673687065950958e+01
pressure[sink_29] 7.6968969339568147e+01
interdiction[source_1,sink_3] 0
interdiction[innode_1,sink_16] 0
interdiction[innode_6,sink_13] 0
interdiction[sink_13,sink_14] 0
interdiction[sink_14,sink_10] 0
interdiction[sink_25,sink_26] 0
interdiction[sink_26,sink_9] 1
interdiction[sink_9,sink_18] 0
interdiction[sink_26,sink_4] 0
interdiction[sink_4,sink_20] 0
interdiction[sink_18,sink_6] 0
interdiction[sink_25,innode_8] 0
interdiction[sink_6,sink_7] 0
interdiction[sink_6,sink_22] 0
interdiction[sink_7,sink_24] 0
interdiction[sink_22,sink_1] 0
interdiction[sink_24,sink_21] 0
interdiction[sink_21,sink_12] 0
interdiction[sink_7,sink_5] 0
interdiction[sink_5,sink_17] 0
interdiction[sink_17,sink_4] 0
interdiction[sink_17,sink_8] 0
interdiction[sink_3,sink_23] 0
interdiction[sink_8,sink_20] 0
interdiction[sink_25,sink_20] 0
interdiction[sink_25,sink_15] 0
interdiction[sink_15,sink_29] 0
interdiction[sink_29,sink_28] 0
interdiction[sink_29,sink_2] 0
interdiction[sink_2,sink_15] 0
interdiction[sink_29,innode_7] 0
interdiction[innode_4,sink_19] 1
interdiction[sink_19,innode_3] 1
interdiction[innode_4,innode_5] 0
interdiction[sink_27,innode_5] 0
interdiction[sink_27,sink_19] 0
interdiction[sink_10,sink_11] 0
interdiction[sink_10,innode_2] 0
interdiction[sink_10,innode_3] 0
interdiction[innode_6,sink_25] 0
interdiction[sink_11,innode_1] 0
interdiction[sink_19,innode_2] 0
interdiction[source_3,innode_4] 0
interdiction[source_2,innode_7] 0
interdiction[sink_3,innode_8] 0
WCcheckFlow[source_1,sink_3] 39
WCcheckFlow[innode_1,sink_16] 1
WCcheckFlow[innode_6,sink_13] 13
WCcheckFlow[sink_13,sink_14] 12
WCcheckFlow[sink_14,sink_10] 11
WCcheckFlow[sink_25,sink_26] 15
WCcheckFlow[sink_26,sink_9] 0
WCcheckFlow[sink_9,sink_18] -1
WCcheckFlow[sink_26,sink_4] 14
WCcheckFlow[sink_4,sink_20] 1
WCcheckFlow[sink_18,sink_6] -2
WCcheckFlow[sink_25,innode_8] -36
WCcheckFlow[sink_6,sink_7] -5
WCcheckFlow[sink_6,sink_22] 2
WCcheckFlow[sink_7,sink_24] 3
WCcheckFlow[sink_22,sink_1] 1
WCcheckFlow[sink_24,sink_21] 2
WCcheckFlow[sink_21,sink_12] 1
WCcheckFlow[sink_7,sink_5] -9
WCcheckFlow[sink_5,sink_17] -10
WCcheckFlow[sink_17,sink_4] -12
WCcheckFlow[sink_17,sink_8] 1
WCcheckFlow[sink_3,sink_23] 1
WCcheckFlow[sink_8,sink_20] 0
WCcheckFlow[sink_25,sink_20] 0
WCcheckFlow[sink_25,sink_15] 6
WCcheckFlow[sink_15,sink_29] 5
WCcheckFlow[sink_29,sink_28] 1
WCcheckFlow[sink_29,sink_2] 1
WCcheckFlow[sink_2,sink_15] 0
WCcheckFlow[sink_29,innode_7] 2
WCcheckFlow[innode_4,sink_19] 0
WCcheckFlow[sink_19,innode_3] 0
WCcheckFlow[innode_4,innode_5] -2
WCcheckFlow[sink_27,innode_5] 3
WCcheckFlow[sink_27,sink_19] -4
WCcheckFlow[sink_10,sink_11] 3
WCcheckFlow[sink_10,innode_2] 6
WCcheckFlow[sink_10,innode_3] 1
WCcheckFlow[innode_6,sink_25] -14
WCcheckFlow[sink_11,innode_1] 2
WCcheckFlow[sink_19,innode_2] -5
WCcheckFlow[source_3,innode_4] -1
WCcheckFlow[source_2,innode_7] -1
WCcheckFlow[sink_3,innode_8] 37
